10
0  22  13  90  44  55  18  77  31  66
33  0  65  28  12  81  49  17  59  24
88  31  0  45  60  14  22  73  41  19
26  74  39  0  55  63  12  87  18  52
41  28  77  13  0  44  69  25  56  37
17  60  29  71  38  0  85  22  49  14
51  19  42  33  76  27  0  64  11  58
12  56  20  47  29  70  38  0  65  23
64  18  53  21  40  11  59  26  0  72
39  67  15  62  33  50  22  44  18  0